Problem:    zoo
Rows:       37
Columns:    32 (20 integer, 0 binary)
Non-zeros:  164
Status:     INTEGER OPTIMAL
Objective:  z2 = 9 (MAXimum)

   No.   Row name        Activity     Lower bound   Upper bound
------ ------------    ------------- ------------- -------------
     1 FabGlobale[1]
                                21.6          21.6             = 
     2 FabGlobale[2]
                                  10            10             = 
     3 FabGlobale[3]
                                29.3          29.3             = 
     4 FabGlobale[4]
                                81.7          81.7             = 
     5 FabGlobale[5]
                                 5.4           5.4             = 
     6 FabGlobale[6]
                                 7.6           7.6             = 
     7 FabGlobale[7]
                                15.5          15.5             = 
     8 FabGlobale[8]
                               120.9         120.9             = 
     9 Fabbisogno[1]
                             108.494            -0               
    10 Fabbisogno[2]
                                   0            -0               
    11 Fabbisogno[3]
                             41.5321            -0               
    12 Fabbisogno[4]
                                   0            -0               
    13 Fabbisogno[5]
                            0.678788            -0               
    14 Fabbisogno[6]
                                   0            -0               
    15 Fabbisogno[7]
                             1.88788            -0               
    16 Extra[1]                    0            -0             = 
    17 Extra[2]                    0            -0             = 
    18 Extra[3]                    0            -0             = 
    19 Extra[4]                    0            -0             = 
    20 Extra[6]                    0            -0             = 
    21 Extra[8]                    0            -0             = 
    22 Extra[9]                    0            -0             = 
    23 Extra[10]                   0            -0             = 
    24 Extra[11]                   0            -0             = 
    25 Extra[12]                   0            -0             = 
    26 Extra[13]                   0            -0             = 
    27 Extra[14]                   0            -0             = 
    28 Extra[15]                   0            -0             = 
    29 Extra[16]                   0            -0             = 
    30 Extra[17]                   0            -0             = 
    31 Extra[18]                   0            -0             = 
    32 Extra[19]                   0            -0             = 
    33 Extra[20]                   0            -0             = 
    34 Elefanti                    1                           5 
    35 Giraffe                     8                           8 
    36 z2                          9                             
    37 Spesa                 1527.87       1527.87             = 

   No. Column name       Activity     Lower bound   Upper bound
------ ------------    ------------- ------------- -------------
     1 x[1]                  131.576                             
     2 x[2]                      210                             
     3 x[3]                  73.5515                             
     4 x[4]                  57.3333                             
     5 fabGlobale[1]
                                21.6                             
     6 fabGlobale[2]
                                10.5                             
     7 fabGlobale[3]
                                35.9                             
     8 fabGlobale[4]
                               114.7                             
     9 fabGlobale[5]
                                 5.9                             
    10 fabGlobale[6]
                                 8.6                             
    11 fabGlobale[7]
                                16.5                             
    12 fabGlobale[8]
                               161.9                             
    13 y[1]         *              0                             
    14 y[2]         *              0                             
    15 y[3]         *              0                             
    16 y[4]         *              0                             
    17 y[5]         *              1                             
    18 y[6]         *              0                             
    19 y[7]         *              8                             
    20 y[8]         *              0                             
    21 y[9]         *              0                             
    22 y[10]        *              0                             
    23 y[11]        *              0                             
    24 y[12]        *              0                             
    25 y[13]        *              0                             
    26 y[14]        *              0                             
    27 y[15]        *              0                             
    28 y[16]        *              0                             
    29 y[17]        *              0                             
    30 y[18]        *              0                             
    31 y[19]        *              0                             
    32 y[20]        *              0                             

Integer feasibility conditions:

KKT.PE: max.abs.err = 0.00e+00 on row 0
        max.rel.err = 0.00e+00 on row 0
        High quality

KKT.PB: max.abs.err = 1.42e-14 on row 8
        max.rel.err = 2.35e-16 on row 3
        High quality

End of output
